amountOfDepartureSegments = 7;
amountOfReturnSegments = 3;
departurePricesOptions = 4;
returnPricesOptions = 2;
maxAmountOfDepartureSegments = 2;
maxAmountOfReturnSegmentsOptions = 1;
amountOfLodgings = 6;
maxAmountOfFeatures = 14;
maxPrice = 100000;
maxStops = 2;
maxStopsDuration = 700;
maxTotalDuration = 1000;
allowAerolines = [0,1,2,3,4,5,6,7];
allowIntermediaries = true;
timeWindowStartHours = [0];
timeWindowStartMinutes = [0];
timeWindowEndHours = [23];
timeWindowEndMinutes = [59];
beedrooms = 1;
beds = 1;
bathrooms = 1;
isSuperHost = false;
allowPolicies = [0,1,2,3,4];
features = [];
departureSegmentsId = ["10597-2307010600--31897-0-16807-2307010710","10597-2307010600--32540-0-16807-2307010715","10597-2307010612--32540,-31897-1-16807-2307011141","10597-2307010600--32357-0-16807-2307010715","10597-2307010642--32540,-31897-1-16807-2307011141","10597-2307011630--31897-0-16807-2307011740","10597-2307012231--32748,-31897-1-16807-2307021134"];
departureSegmentsDuration = [70,75,329,75,299,70,783];
departureSegmentsStops = [0,0,1,0,1,0,1];
departureLegsDeparturesHours = [|6,-1|6,-1|6,9|6,-1|6,9|16,-1|22,9|];
departureLegsDeparturesMinutes = [|0,-1|0,-1|12,55|0,-1|42,55|30,-1|31,48|];
departureLegsArrivalsHours = [|7,-1|7,-1|7,11|7,-1|7,11|17,-1|23,11|];
departureLegsArrivalsMinutes = [|10,-1|15,-1|14,41|15,-1|44,41|40,-1|30,34|];
departureLegsDepartures = [|181,-1|181,-1|181,181|
181,-1|181,181|181,-1|
182,182|];
departureLegsArrivals = [|181,-1|181,-1|181,181|
181,-1|181,181|181,-1|
182,182|];
departureLegsDuration = [|70,-1|75,-1|62,106|75,-1|62,106|70,-1|59,106|];
departureLegsAeroline = [|4,-1|0,-1|0,4|2,-1|0,4|4,-1|7,4|];
departureSegmentsPrices = [|25300,-1,-1,-1|25917,25917,26291,28700|
53400,-1,-1,-1|27600,0,-1,-1|
61300,-1,-1,-1|27100,-1,-1,-1|
50700,-1,-1,-1|];
departureSegmentsPricesAgents = [|13,-1,-1,-1|15,12,8,13|13,-1,-1,-1|
13,2,-1,-1|13,-1,-1,-1|13,-1,-1,-1|
13,-1,-1,-1|];
departureSegmentsPricesIsCarrier = [|0,-1,-1,-1|0,0,0,0|0,-1,-1,-1|
0,1,-1,-1|0,-1,-1,-1|0,-1,-1,-1|
0,-1,-1,-1|];
departureSegmentsAgentsScore = [|298,-1,-1,-1|
303,260,352,298|
298,-1,-1,-1|
298,-1,-1,-1|
298,-1,-1,-1|
298,-1,-1,-1|
298,-1,-1,-1|];
returnSegmentsId = ["16807-2307021830--32357-0-10597-2307021935","16807-2307021155--31897-0-10597-2307021256","16807-2307021830--32540-0-10597-2307021935"];
returnSegmentsDuration = [65,61,65];
returnSegmentsStops = [0,0,0];
returnLegsDeparturesHours = [|18|11|18|];
returnLegsDeparturesMinutes = [|30|55|30|];
returnLegsArrivalsHours = [|19|12|19|];
returnLegsArrivalsMinutes = [|35|56|35|];
returnLegsDepartures = [|182|182|182|];
returnLegsArrivals = [|183|182|183|];
returnLegsDuration = [|65|61|65|];
returnLegsAeroline = [|2|4|0|];
returnSegmentsPrices = [|25900,0|31000,-1|
25900,-1|];
returnSegmentsPricesAgents = [|13,2|13,-1|13,-1|];
returnSegmentsPricesIsCarrier = [|0,1|0,-1|0,-1|];
returnSegmentsAgentsScore = [|298,-1|
298,-1|
298,-1|];
lodgingsId = ["730551195083511302","781253233880019031","726840749004812551","726860073262678984","751474071975862377","751370012502708194"];
lodgingsStartDate = [181,181,181,181,181,181];
lodgingsEndDate = [182,182,182,182,182,182];
lodgingsPeople = [4,6,3,4,4,4];
lodgingsBathrooms = [2,2,1,1,1,1];
lodgingsBedrooms = [2,2,14,14,14,14];
lodgingsBeds = [2,3,2,2,2,2];
lodgingsIsSuperhost = [false,false,false,false,false,false];
lodgingsRating = [500,483,-1,-1,-1,-1];
lodgingsFeatures = [|4,5,8,11,12,33,34,44,46,47,-1,-1,-1,-1|
4,5,7,8,9,12,33,35,47,-1,-1,-1,-1,-1|
64,33,34,35,4,36,5,9,41,44,46,47,25,27|
64,33,34,35,4,36,5,9,41,44,46,47,27,-1|
64,33,34,35,4,36,5,9,41,44,46,47,25,-1|
64,33,34,35,4,36,5,9,41,44,46,47,25,-1|];
lodgingsCancelPolicy = [1,1,2,2,2,2];
lodgingsPriceTotalAmount = [5500,5100,5300,6400,6100,7400];
